Set parameter LicenseID to value 2609176
Set parameter TimeLimit to value 1800
Gurobi Optimizer version 11.0.3 build v11.0.3rc0 (linux64 - "Debian GNU/Linux 12 (bookworm)")

CPU model: AMD EPYC 7B12, instruction set [SSE2|AVX|AVX2]
Thread count: 4 physical cores, 8 logical processors, using up to 8 threads

Optimize a model with 7336 rows, 2304 columns and 120088 nonzeros
Model fingerprint: 0x3475c775
Variable types: 0 continuous, 2304 integer (2304 binary)
Coefficient statistics:
  Matrix range     [1e+00, 1e+00]
  Objective range  [0e+00, 0e+00]
  Bounds range     [1e+00, 1e+00]
  RHS range        [1e+00, 1e+00]
Presolve removed 3442 rows and 24 columns
Presolve time: 0.28s
Presolved: 3894 rows, 2280 columns, 88348 nonzeros
Variable types: 0 continuous, 2280 integer (2280 binary)
Error: invalid user locale; possible fix is to set the system environment
       variable 'LC_ALL' to a valid locale (e.g., to 'C')

Root relaxation: objective 0.000000e+00, 961 iterations, 0.11 seconds (0.16 work units)

    Nodes    |    Current Node    |     Objective Bounds      |     Work
 Expl Unexpl |  Obj  Depth IntInf | Incumbent    BestBd   Gap | It/Node Time

     0     0    0.00000    0  140          -    0.00000      -     -    1s
     0     0    0.00000    0  181          -    0.00000      -     -    1s
     0     0    0.00000    0  177          -    0.00000      -     -    1s
     0     0    0.00000    0  167          -    0.00000      -     -    2s
     0     0    0.00000    0  153          -    0.00000      -     -    2s
H    0     0                       0.0000000    0.00000  0.00%     -    3s
     0     0    0.00000    0  102    0.00000    0.00000  0.00%     -    3s

Cutting planes:
  Clique: 65
  Zero half: 28

Explored 1 nodes (17567 simplex iterations) in 3.37 seconds (4.23 work units)
Thread count was 8 (of 8 available processors)

Solution count 1: 0 

Optimal solution found (tolerance 1.00e-04)
Best objective 0.000000000000e+00, best bound 0.000000000000e+00, gap 0.0000%
Giá trị Antibandwidth: 8
Các nhãn: [46, 25, 16, 41, 15, 24, 11, 28, 33, 40, 43, 5, 4, 12, 20, 38, 7, 27, 39, 44, 36, 32, 6, 30, 45, 48, 26, 8, 31, 1, 23, 22, 47, 2, 35, 9, 18, 17, 19, 10, 14, 13, 29, 37, 42, 34, 3, 21]
Bài toán Antibandwidth
Set parameter TimeLimit to value 1800
Gurobi Optimizer version 11.0.3 build v11.0.3rc0 (linux64 - "Debian GNU/Linux 12 (bookworm)")

CPU model: AMD EPYC 7B12, instruction set [SSE2|AVX|AVX2]
Thread count: 4 physical cores, 8 logical processors, using up to 8 threads

Optimize a model with 7160 rows, 2304 columns and 131352 nonzeros
Model fingerprint: 0xaf49d6a9
Variable types: 0 continuous, 2304 integer (2304 binary)
Coefficient statistics:
  Matrix range     [1e+00, 1e+00]
  Objective range  [0e+00, 0e+00]
  Bounds range     [1e+00, 1e+00]
  RHS range        [1e+00, 1e+00]
Presolve removed 3032 rows and 24 columns
Presolve time: 0.29s
Presolved: 4128 rows, 2280 columns, 99810 nonzeros
Variable types: 0 continuous, 2280 integer (2280 binary)

Root relaxation: objective 0.000000e+00, 1090 iterations, 0.14 seconds (0.20 work units)

    Nodes    |    Current Node    |     Objective Bounds      |     Work
 Expl Unexpl |  Obj  Depth IntInf | Incumbent    BestBd   Gap | It/Node Time

     0     0    0.00000    0  142          -    0.00000      -     -    1s
     0     0    0.00000    0  247          -    0.00000      -     -    1s
     0     0    0.00000    0  200          -    0.00000      -     -    1s
     0     0    0.00000    0  220          -    0.00000      -     -    2s
     0     0    0.00000    0  212          -    0.00000      -     -    2s
     0     0    0.00000    0  240          -    0.00000      -     -    3s
     0     0    0.00000    0  229          -    0.00000      -     -    3s
     0     0    0.00000    0  202          -    0.00000      -     -    4s
     0     0    0.00000    0  220          -    0.00000      -     -    4s
     0     0    0.00000    0  219          -    0.00000      -     -    5s
     0     0    0.00000    0  161          -    0.00000      -     -    6s
     0     2    0.00000    0  101          -    0.00000      -     -    9s
    23    20    0.00000    6  182          -    0.00000      -   645   10s
*  223    78              23       0.0000000    0.00000  0.00%   332   11s

Cutting planes:
  Cover: 1
  Clique: 98
  MIR: 1
  Zero half: 5

Explored 238 nodes (106755 simplex iterations) in 11.88 seconds (18.86 work units)
Thread count was 8 (of 8 available processors)

Solution count 1: 0 

Optimal solution found (tolerance 1.00e-04)
Best objective 0.000000000000e+00, best bound 0.000000000000e+00, gap 0.0000%
Giá trị Antibandwidth: 9
Các nhãn: [45, 13, 42, 31, 15, 6, 21, 48, 22, 38, 36, 11, 10, 19, 32, 33, 43, 44, 34, 30, 3, 28, 25, 17, 24, 29, 26, 16, 47, 8, 1, 27, 14, 9, 35, 46, 5, 23, 39, 18, 37, 20, 41, 2, 40, 4, 12, 7]
Bài toán Antibandwidth
